(set-logic QF_S)
(declare-const x String)
(declare-const y String)
(assert (str.in.re x (re.+ (re.* (str.to.re "aabb")))))
(assert (str.in.re y (str.to.re "aapp")))
(assert (= 8 (str.to.int x)))
(assert (= (str.len y) 12))
(check-sat)
